(set-logic SLIA)
(constraint (= (f "humpty dumpty") 2))
(constraint (= (f "humpty dumpty sat on a wall,") 6))
(constraint (= (f "couldnt put humpty together again.") 5))
(check-synth)
(synth-fun f ((_arg_0 String)) Int ((Start Int (ntInt)) (ntString String ((Str A) (str.++ ntString A))) (A String ((Str ConstString) (SubStr X P P))) (P Int ((Int ntInt) (Pos X Pattern ntInt Direction))) (Pattern String ((Str ConstString) "ProperCase" "CAPS" "lowercase" "Digits" "Alphabets" "Alphanumeric" "WhiteSpace" "ProperCaseWSpaces" "CAPSWSpaces" "lowercaseSpaces" "AlphabetsWSpaces")) (X String (_arg_0)) (ConstString String (_arg_0 "" " ")) (Direction Int (0 1)) (ntInt Int (-5 -4 -3 -2 -1 0 1 2 3 4 5))))
